units           metal
boundary        p p p

atom_style      atomic

read_data       pei/Zr50Cu35Al15_t3_final.dat

pair_style      eam/alloy
pair_coeff      * * ZrCuAl2011.eam.alloy Zr Cu Al

compute pot all pe
#minimize 0 0 100 100
