units           metal
boundary        p p p

atom_style      atomic

read_data       test.dat

pair_style      eam/alloy
pair_coeff      * * NiNb.lammps.eam Ni Nb

compute pot all pe
#minimize 0 0 100 100
minimize 1.0e-4 1.0e-6 100 1000
