units           metal
boundary        p p p

atom_style      atomic

read_data       model_update_9397_2270000.dat

pair_style      eam/alloy
pair_coeff      * * ZrCuAl2011.eam.alloy Cu Al Zr

#compute all all pe
compute pot all pe

#set atom 1 x 0.0 y 0.0 z 0.0

#minimize 0 0 0 0
